
  32    4
  10   10   10   10

   0   0   0   0   0   4 2 29 30 31 
   3   1   0   1   1   2 28 3 
   1   4   1   0   4   1 4 
   2   7   0   2   6   2 27 5 
   5   3   0   5   6   1 6 
   3   6   0   2   3   1 7 
   1   3   4   8   0   2 26 8 
   1   4   0   5   4   2 25 9 
  10   0   4   2   2   2 24 10 
   4   1   3   5   0   1 11 
   2   5   2   6   0   2 23 12 
   5   0   4   4   4   1 13 
   3   3   0   1   6   1 14 
   2   6   0   5   6   1 15 
   2   6   0   6   5   1 16 
  10   2   0   5   2   1 17 
   9   0   6   6   4   1 18 
   8   4   5   0   3   1 19 
   2   5   3   0   7   1 20 
   9   2   5   7   0   1 21 
   4   6   3   0   3   1 22 
  10   3   4   5   0   1 32
   1   0   2   1   4   1 32
   5   0   5   5   5   1 32
   2   0   6   3   5   1 32
   5   0   7   2   3   1 32
   8   4   4   0   5   1 32
   8   7   0   2   2   1 32
   5   2   6   4   0   1 32
   2   0   4   4   2   1 32
   4   0   2   4   4   1 32
   0   0   0   0   0   0 
